c Sudoku solution
p cnf 729 0
113 0
168 0
186 0
232 0
265 0
274 0
299 0
327 0
336 0
372 0
381 0
424 0
469 0
537 0
579 0
621 0
228 0
211 0
398 0
283 0
315 0
134 0
129 0
648 0
652 0
142 0
151 0
739 0
619 0
743 0
762 0
826 0
725 0
957 0
256 0
247 0
667 0
961 0
864 0
758 0
946 0
831 0
989 0
566 0
416 0
363 0
684 0
787 0
714 0
817 0
994 0
975 0
177 0
195 0
497 0
482 0
888 0
892 0
873 0
676 0
771 0
796 0
478 0
591 0
693 0
585 0
441 0
518 0
522 0
553 0
455 0
544 0
433 0
635 0
912 0
923 0
938 0
349 0
354 0
845 0
859 0
